job_count = 40 ;
duration = [|18, 23, 3, 8, 12, 16, 11, 3|23, 12, 15, 4, 16, 11, 8, 7|13, 22, 3, 13, 11, 17, 2, 4|24, 19, 5, 5, 9, 2, 9, 14|23, 4, 13, 15, 11, 10, 4, 2|20, 4, 20, 15, 16, 5, 5, 7|15, 10, 14, 9, 11, 13, 15, 8|6, 2, 19, 18, 9, 14, 2, 9|11, 6, 2, 2, 13, 5, 14, 7|9, 19, 13, 11, 12, 5, 4, 14|20, 17, 19, 10, 13, 9, 6, 9|19, 14, 5, 3, 6, 14, 7, 12|7, 19, 3, 14, 17, 16, 12, 13|8, 9, 9, 12, 14, 8, 15, 5|20, 5, 12, 7, 13, 13, 2, 7|14, 23, 19, 15, 16, 10, 2, 9|20, 9, 9, 15, 17, 10, 4, 11|18, 12, 9, 3, 8, 15, 8, 8|12, 5, 12, 8, 17, 16, 8, 5|9, 6, 11, 12, 7, 9, 14, 14|21, 8, 9, 10, 7, 17, 10, 9|10, 19, 6, 8, 18, 9, 13, 8|5, 18, 19, 13, 11, 5, 5, 4|9, 15, 21, 9, 9, 16, 2, 2|8, 16, 2, 8, 7, 7, 9, 8|15, 4, 9, 4, 4, 14, 14, 10|17, 16, 16, 17, 15, 3, 14, 14|13, 12, 4, 5, 5, 12, 6, 11|6, 22, 16, 2, 13, 12, 4, 5|22, 10, 20, 17, 12, 10, 12, 10|24, 16, 4, 8, 8, 2, 10, 8|18, 2, 3, 16, 10, 17, 14, 7|10, 16, 8, 5, 12, 4, 14, 6|21, 5, 4, 5, 12, 17, 13, 5|20, 16, 5, 16, 12, 13, 14, 9|16, 20, 12, 8, 9, 9, 15, 3|18, 11, 5, 16, 11, 3, 10, 10|19, 11, 4, 12, 5, 6, 12, 6|8, 9, 2, 11, 5, 4, 3, 3|21, 3, 3, 14, 14, 12, 10, 10|] ;
machine_count = 8 ;
cost = [|23, 24, 35, 37, 37, 36, 39, 43|19, 17, 25, 28, 36, 39, 29, 50|27, 19, 26, 31, 27, 32, 38, 34|18, 29, 23, 26, 39, 32, 34, 53|18, 33, 21, 25, 25, 33, 37, 32|20, 21, 22, 25, 32, 39, 30, 53|20, 29, 27, 29, 23, 36, 47, 44|19, 19, 24, 35, 30, 43, 32, 32|27, 29, 32, 24, 31, 31, 29, 40|20, 21, 34, 31, 40, 26, 39, 50|24, 31, 23, 21, 30, 38, 39, 33|20, 26, 24, 30, 31, 39, 45, 31|25, 23, 30, 19, 21, 39, 29, 48|24, 17, 19, 29, 28, 34, 32, 35|17, 32, 24, 33, 40, 39, 35, 45|16, 22, 32, 30, 22, 42, 43, 38|18, 22, 22, 31, 32, 36, 28, 42|21, 30, 32, 22, 31, 23, 34, 40|28, 28, 20, 21, 30, 28, 37, 38|21, 26, 32, 19, 40, 24, 24, 30|22, 21, 30, 23, 22, 36, 44, 42|18, 18, 19, 31, 22, 22, 40, 37|26, 20, 31, 22, 21, 42, 37, 38|16, 29, 29, 27, 31, 36, 47, 33|20, 24, 30, 35, 40, 23, 24, 44|29, 21, 21, 30, 25, 42, 39, 49|22, 17, 30, 19, 38, 31, 31, 32|27, 17, 29, 27, 34, 38, 30, 27|20, 18, 21, 32, 34, 38, 29, 52|17, 29, 23, 24, 35, 25, 28, 49|24, 30, 21, 28, 25, 40, 46, 45|30, 29, 29, 19, 21, 42, 35, 29|22, 31, 20, 31, 28, 35, 40, 45|24, 33, 18, 25, 31, 32, 28, 35|26, 26, 21, 29, 34, 28, 42, 29|16, 18, 26, 19, 30, 32, 24, 51|22, 30, 26, 28, 35, 30, 28, 30|26, 28, 34, 22, 38, 26, 25, 38|23, 23, 31, 36, 37, 32, 24, 39|22, 23, 30, 31, 21, 33, 44, 44|] ;
deadline = [33, 33, 33, 33, 33, 33, 33, 33, 33, 33, 33, 33, 33, 33, 33, 33, 33, 33, 33, 33, 33, 33, 33, 33, 33, 33, 33, 33, 33, 33, 33, 33, 33, 33, 33, 33, 33, 33, 33, 33] ;
release = [0, 0, 0, 0, 0, 0, 0, 0, 0, 0, 0, 0, 0, 0, 0, 0, 0, 0, 0, 0, 0, 0, 0, 0, 0, 0, 0, 0, 0, 0, 0, 0, 0, 0, 0, 0, 0, 0, 0, 0] ;
resource = [|5, 5, 5, 5, 5, 5, 5, 5|7, 7, 7, 7, 7, 7, 7, 7|9, 9, 9, 9, 9, 9, 9, 9|7, 7, 7, 7, 7, 7, 7, 7|7, 7, 7, 7, 7, 7, 7, 7|8, 8, 8, 8, 8, 8, 8, 8|6, 6, 6, 6, 6, 6, 6, 6|9, 9, 9, 9, 9, 9, 9, 9|5, 5, 5, 5, 5, 5, 5, 5|5, 5, 5, 5, 5, 5, 5, 5|2, 2, 2, 2, 2, 2, 2, 2|8, 8, 8, 8, 8, 8, 8, 8|8, 8, 8, 8, 8, 8, 8, 8|2, 2, 2, 2, 2, 2, 2, 2|7, 7, 7, 7, 7, 7, 7, 7|9, 9, 9, 9, 9, 9, 9, 9|8, 8, 8, 8, 8, 8, 8, 8|4, 4, 4, 4, 4, 4, 4, 4|2, 2, 2, 2, 2, 2, 2, 2|6, 6, 6, 6, 6, 6, 6, 6|7, 7, 7, 7, 7, 7, 7, 7|2, 2, 2, 2, 2, 2, 2, 2|4, 4, 4, 4, 4, 4, 4, 4|9, 9, 9, 9, 9, 9, 9, 9|9, 9, 9, 9, 9, 9, 9, 9|6, 6, 6, 6, 6, 6, 6, 6|7, 7, 7, 7, 7, 7, 7, 7|3, 3, 3, 3, 3, 3, 3, 3|6, 6, 6, 6, 6, 6, 6, 6|6, 6, 6, 6, 6, 6, 6, 6|3, 3, 3, 3, 3, 3, 3, 3|8, 8, 8, 8, 8, 8, 8, 8|1, 1, 1, 1, 1, 1, 1, 1|9, 9, 9, 9, 9, 9, 9, 9|6, 6, 6, 6, 6, 6, 6, 6|8, 8, 8, 8, 8, 8, 8, 8|7, 7, 7, 7, 7, 7, 7, 7|9, 9, 9, 9, 9, 9, 9, 9|5, 5, 5, 5, 5, 5, 5, 5|2, 2, 2, 2, 2, 2, 2, 2|] ;
capacities = [10, 10, 10, 10, 10, 10, 10, 10] ;
